clingo version 5.5.1
Reading from ...blem-instances/Testset1/11/instance.lp ...
UNKNOWN

INTERRUPTED  : 1
Models       : 0+
Calls        : 1
Time         : 17.429s (Solving: 0.00s 1st Model: 0.00s Unsat: 0.00s)
CPU Time     : 17.427s
